
******************************************************************************
This program contains Ipopt, a library for large-scale nonlinear optimization.
 Ipopt is released as open source code under the Eclipse Public License (EPL).
         For more information visit http://projects.coin-or.org/Ipopt
******************************************************************************

This is Ipopt version 3.12.6, running with linear solver ma57.

Number of nonzeros in equality constraint Jacobian...:        0
Number of nonzeros in inequality constraint Jacobian.:        0
Number of nonzeros in Lagrangian Hessian.............:      891

Total number of variables............................:       51
                     variables with only lower bounds:        0
                variables with lower and upper bounds:        0
                     variables with only upper bounds:        0
Total number of equality constraints.................:        0
Total number of inequality constraints...............:        0
        inequality constraints with only lower bounds:        0
   inequality constraints with lower and upper bounds:        0
        inequality constraints with only upper bounds:        0

iter    objective    inf_pr   inf_du lg(mu)  ||d||  lg(rg) alpha_du alpha_pr  ls
   0  1.1035402e+02 0.00e+00 6.81e+01  -1.0 0.00e+00    -  0.00e+00 0.00e+00   0
   1  4.9759982e+01 0.00e+00 4.63e+01  -1.0 5.02e-01   2.0 1.00e+00 1.00e+00f  1
   2  1.2821843e+01 0.00e+00 1.88e+01  -1.0 7.83e-01   1.5 1.00e+00 1.00e+00f  1
   3  1.4050573e-02 0.00e+00 5.08e-01  -1.0 7.56e-01   1.0 1.00e+00 1.00e+00f  1
   4  2.6369388e-04 0.00e+00 3.39e-02  -1.7 9.25e-03   0.6 1.00e+00 1.00e+00f  1
   5  1.0629083e-04 0.00e+00 3.01e-03  -2.5 2.44e-03   0.1 1.00e+00 1.00e+00f  1
   6  8.0954757e-05 0.00e+00 2.35e-03  -3.8 5.71e-03  -0.4 1.00e+00 1.00e+00f  1
   7  5.2097323e-05 0.00e+00 1.30e-03  -3.8 9.65e-03  -0.9 1.00e+00 1.00e+00f  1
   8  3.2757975e-05 0.00e+00 8.38e-04  -5.7 1.09e-02  -1.3 1.00e+00 1.00e+00f  1
   9  1.7520895e-05 0.00e+00 2.13e-03  -5.7 2.30e-02  -1.8 1.00e+00 1.00e+00f  1
iter    objective    inf_pr   inf_du lg(mu)  ||d||  lg(rg) alpha_du alpha_pr  ls
  10  6.8069824e-06 0.00e+00 3.68e-03  -5.7 3.08e-02  -2.3 1.00e+00 1.00e+00f  1
  11  1.8659468e-06 0.00e+00 2.48e-03  -5.7 2.37e-02  -2.8 1.00e+00 1.00e+00f  1
  12  9.4317247e-07 0.00e+00 2.51e-03  -5.7 1.50e-02  -3.2 1.00e+00 1.00e+00f  1
  13  5.2449602e-08 0.00e+00 2.85e-04  -5.7 4.85e-03  -2.8 1.00e+00 1.00e+00f  1
  14  3.7838319e-08 0.00e+00 1.32e-05  -5.7 1.74e-03  -3.3 1.00e+00 1.00e+00f  1
  15  3.3382760e-08 0.00e+00 7.71e-05  -8.6 4.33e-03  -3.8 1.00e+00 1.00e+00f  1
  16  2.7018325e-08 0.00e+00 3.06e-04  -8.6 8.58e-03  -4.3 1.00e+00 1.00e+00f  1
  17  2.2287650e-08 0.00e+00 2.87e-04  -8.6 7.22e-03  -4.7 1.00e+00 1.00e+00f  1
  18  1.9307938e-08 0.00e+00 5.82e-06  -8.6 1.24e-03  -3.4 1.00e+00 1.00e+00f  1
  19  1.6914170e-08 0.00e+00 5.24e-05  -8.6 3.59e-03  -3.9 1.00e+00 1.00e+00f  1
iter    objective    inf_pr   inf_du lg(mu)  ||d||  lg(rg) alpha_du alpha_pr  ls
  20  1.3385626e-08 0.00e+00 2.14e-04  -8.6 7.20e-03  -4.4 1.00e+00 1.00e+00f  1
  21  1.0568985e-08 0.00e+00 2.10e-04  -8.6 6.30e-03  -4.8 1.00e+00 1.00e+00f  1
  22  9.2249659e-09 0.00e+00 3.69e-06  -8.6 9.83e-04  -3.5 1.00e+00 1.00e+00f  1
  23  8.0114383e-09 0.00e+00 3.33e-05  -8.6 2.87e-03  -4.0 1.00e+00 1.00e+00f  1
  24  6.1580845e-09 0.00e+00 1.42e-04  -8.6 5.88e-03  -4.5 1.00e+00 1.00e+00f  1
  25  4.5843717e-09 0.00e+00 1.44e-04  -8.6 5.38e-03  -4.9 1.00e+00 1.00e+00f  1
  26  4.1504183e-09 0.00e+00 1.29e-04  -8.6 4.30e-03  -4.5 1.00e+00 1.00e+00f  1
  27  3.5961273e-09 0.00e+00 1.76e-04  -8.6 3.14e-03  -4.1 1.00e+00 1.00e+00f  1
  28  2.3520384e-09 0.00e+00 1.66e-06  -8.6 6.79e-04  -3.7 1.00e+00 1.00e+00f  1
  29  2.0215136e-09 0.00e+00 1.27e-05  -8.6 1.78e-03  -4.1 1.00e+00 1.00e+00f  1
iter    objective    inf_pr   inf_du lg(mu)  ||d||  lg(rg) alpha_du alpha_pr  ls
  30  1.4682126e-09 0.00e+00 5.95e-05  -8.6 3.83e-03  -4.6 1.00e+00 1.00e+00f  1
  31  9.8979363e-10 0.00e+00 7.36e-05  -8.6 4.01e-03  -5.1 1.00e+00 1.00e+00f  1
  32  7.0952200e-10 0.00e+00 1.43e-05  -8.6 2.01e-03  -4.7 1.00e+00 1.00e+00f  1
  33  5.1712742e-10 0.00e+00 9.44e-05  -8.6 4.46e-03  -5.1 1.00e+00 1.00e+00f  1
  34  3.0582385e-10 0.00e+00 1.43e-05  -8.6 1.32e-03  -4.7 1.00e+00 1.00e+00f  1
  35  2.6213530e-10 0.00e+00 1.65e-06  -8.6 6.33e-04  -4.3 1.00e+00 1.00e+00f  1
  36  2.0342727e-10 0.00e+00 8.73e-06  -8.6 1.48e-03  -4.8 1.00e+00 1.00e+00f  1
  37  1.4861249e-10 0.00e+00 1.77e-05  -8.6 2.07e-03  -5.2 1.00e+00 1.00e+00f  1
  38  1.1893350e-10 0.00e+00 1.13e-05  -8.6 1.58e-03  -5.7 1.00e+00 1.00e+00f  1
  39  1.1489471e-10 0.00e+00 7.95e-06  -8.6 1.86e-03  -6.2 1.00e+00 2.50e-01f  3
iter    objective    inf_pr   inf_du lg(mu)  ||d||  lg(rg) alpha_du alpha_pr  ls
  40  1.1245501e-10 0.00e+00 1.32e-05  -8.6 1.12e-03  -5.8 1.00e+00 1.00e+00f  1
  41  1.0587451e-10 0.00e+00 2.23e-08  -8.6 7.38e-05  -4.4 1.00e+00 1.00e+00f  1
  42  1.0531414e-10 0.00e+00 1.19e-07  -9.0 1.65e-04  -4.9 1.00e+00 1.00e+00f  1
  43  1.0473417e-10 0.00e+00 2.84e-07  -9.0 2.40e-04  -5.4 1.00e+00 1.00e+00f  1
  44  1.0426254e-10 0.00e+00 6.47e-07  -9.0 4.22e-04  -5.9 1.00e+00 1.00e+00f  1
  45  1.0373367e-10 0.00e+00 4.04e-06  -9.0 9.93e-04  -6.4 1.00e+00 1.00e+00f  1
  46  1.0320892e-10 0.00e+00 2.95e-07  -9.0 2.80e-04  -5.9 1.00e+00 1.00e+00f  1
  47  1.0299326e-10 0.00e+00 6.28e-06  -9.0 1.26e-03  -6.4 1.00e+00 1.00e+00f  1
  48  1.0200129e-10 0.00e+00 2.31e-07  -9.0 2.38e-04  -6.0 1.00e+00 1.00e+00f  1
  49  1.0151357e-10 0.00e+00 2.19e-06  -9.0 1.45e-03  -6.5 1.00e+00 5.00e-01f  2
iter    objective    inf_pr   inf_du lg(mu)  ||d||  lg(rg) alpha_du alpha_pr  ls
  50  1.0109274e-10 0.00e+00 6.75e-07  -9.0 4.06e-04  -6.0 1.00e+00 1.00e+00f  1
  51  1.0094023e-10 0.00e+00 6.29e-06  -9.0 1.26e-03  -6.5 1.00e+00 1.00e+00f  1
  52  9.9866394e-11 0.00e+00 2.85e-07  -9.0 2.55e-04  -6.1 1.00e+00 1.00e+00f  1
  53  9.9492673e-11 0.00e+00 1.28e-06  -9.0 2.26e-03  -6.6 1.00e+00 2.50e-01f  3
  54  9.9447479e-11 0.00e+00 2.47e-06  -9.0 6.86e-04  -6.1 1.00e+00 1.00e+00f  1
  55  9.8644213e-11 0.00e+00 1.39e-06  -9.0 1.60e-03  -5.7 1.00e+00 2.50e-01f  3
  56  9.8139110e-11 0.00e+00 1.59e-06  -9.0 6.15e-04  -6.2 1.00e+00 1.00e+00f  1
  57  9.7849809e-11 0.00e+00 3.04e-07  -9.0 2.79e-04  -5.8 1.00e+00 1.00e+00f  1
  58  9.7341909e-11 0.00e+00 3.03e-06  -9.0 8.74e-04  -6.2 1.00e+00 1.00e+00f  1
  59  9.6947725e-11 0.00e+00 2.62e-07  -9.0 2.55e-04  -5.8 1.00e+00 1.00e+00f  1
iter    objective    inf_pr   inf_du lg(mu)  ||d||  lg(rg) alpha_du alpha_pr  ls
  60  9.6482166e-11 0.00e+00 3.86e-06  -9.0 9.90e-04  -6.3 1.00e+00 1.00e+00f  1
  61  9.5957178e-11 0.00e+00 2.64e-07  -9.0 2.53e-04  -5.9 1.00e+00 1.00e+00f  1
  62  9.5588903e-11 0.00e+00 4.77e-06  -9.0 1.10e-03  -6.3 1.00e+00 1.00e+00f  1
  63  9.4883565e-11 0.00e+00 2.69e-07  -9.0 2.51e-04  -5.9 1.00e+00 1.00e+00f  1
  64  9.4725104e-11 0.00e+00 5.88e-06  -9.0 1.23e-03  -6.4 1.00e+00 1.00e+00f  1
  65  9.3715211e-11 0.00e+00 2.97e-07  -9.0 2.58e-04  -6.0 1.00e+00 1.00e+00f  1
  66  9.3249092e-11 0.00e+00 2.01e-06  -9.0 1.40e-03  -6.4 1.00e+00 5.00e-01f  2
  67  9.2843035e-11 0.00e+00 6.57e-07  -9.0 3.96e-04  -6.0 1.00e+00 1.00e+00f  1
  68  9.2743723e-11 0.00e+00 5.91e-06  -9.0 1.23e-03  -6.5 1.00e+00 1.00e+00f  1
  69  9.1981323e-11 0.00e+00 2.84e-06  -9.0 1.13e-03  -6.1 1.00e+00 5.00e-01f  2
iter    objective    inf_pr   inf_du lg(mu)  ||d||  lg(rg) alpha_du alpha_pr  ls
  70  9.1507452e-11 0.00e+00 1.99e-07  -9.0 2.01e-04  -5.6 1.00e+00 1.00e+00f  1
  71  9.1021205e-11 0.00e+00 1.99e-06  -9.0 7.10e-04  -6.1 1.00e+00 1.00e+00f  1
  72  9.0487239e-11 0.00e+00 3.46e-06  -9.0 8.69e-04  -6.6 1.00e+00 1.00e+00f  1
  73  8.9976707e-11 0.00e+00 1.13e-06  -9.0 5.07e-04  -6.2 1.00e+00 1.00e+00f  1
  74  8.9651673e-11 0.00e+00 3.33e-07  -9.0 2.83e-04  -5.7 1.00e+00 1.00e+00f  1
  75  8.9161881e-11 0.00e+00 2.70e-06  -9.0 8.28e-04  -6.2 1.00e+00 1.00e+00f  1
  76  8.9111878e-11 0.00e+00 2.90e-06  -9.0 4.54e-02  -6.7 1.00e+00 7.81e-03f  8
  77  8.8591669e-11 0.00e+00 8.75e-07  -9.0 4.88e-04  -6.3 1.00e+00 1.00e+00f  1
  78  8.8407978e-11 0.00e+00 2.70e-06  -9.0 2.25e-03  -6.7 1.00e+00 2.50e-01f  3
  79  8.8113778e-11 0.00e+00 6.73e-08  -9.0 1.36e-04  -5.4 1.00e+00 1.00e+00f  1
iter    objective    inf_pr   inf_du lg(mu)  ||d||  lg(rg) alpha_du alpha_pr  ls
  80  8.7785851e-11 0.00e+00 7.36e-07  -9.0 4.32e-04  -5.9 1.00e+00 1.00e+00f  1
  81  8.7290004e-11 0.00e+00 3.56e-06  -9.0 9.36e-04  -6.4 1.00e+00 1.00e+00f  1
  82  8.6828674e-11 0.00e+00 3.39e-07  -9.0 2.90e-04  -5.9 1.00e+00 1.00e+00f  1
  83  8.6627050e-11 0.00e+00 5.96e-06  -9.0 1.22e-03  -6.4 1.00e+00 1.00e+00f  1
  84  8.5693426e-11 0.00e+00 2.65e-07  -9.0 2.46e-04  -6.0 1.00e+00 1.00e+00f  1
  85  8.5233787e-11 0.00e+00 2.16e-06  -9.0 1.44e-03  -6.5 1.00e+00 5.00e-01f  2
  86  8.4827873e-11 0.00e+00 6.66e-07  -9.0 4.00e-04  -6.0 1.00e+00 1.00e+00f  1
  87  8.4762684e-11 0.00e+00 6.26e-06  -9.0 1.26e-03  -6.5 1.00e+00 1.00e+00f  1
  88  8.4020706e-11 0.00e+00 2.89e-06  -9.0 1.31e-03  -6.1 1.00e+00 5.00e-01f  2
  89  8.3495858e-11 0.00e+00 2.82e-07  -9.0 2.21e-04  -5.7 1.00e+00 1.00e+00f  1
iter    objective    inf_pr   inf_du lg(mu)  ||d||  lg(rg) alpha_du alpha_pr  ls
  90  8.3005570e-11 0.00e+00 2.31e-06  -9.0 7.56e-04  -6.1 1.00e+00 1.00e+00f  1
  91  8.2481864e-11 0.00e+00 2.76e-06  -9.0 7.98e-04  -6.6 1.00e+00 1.00e+00f  1
  92  8.2228839e-11 0.00e+00 3.90e-08  -9.0 9.97e-05  -5.3 1.00e+00 1.00e+00f  1
  93  8.1977628e-11 0.00e+00 4.25e-07  -9.0 3.28e-04  -5.8 1.00e+00 1.00e+00f  1
  94  8.1491441e-11 0.00e+00 2.79e-06  -9.0 8.36e-04  -6.2 1.00e+00 1.00e+00f  1
  95  8.1318740e-11 0.00e+00 2.92e-06  -9.0 2.39e-03  -6.7 1.00e+00 2.50e-01f  3
  96  8.0892498e-11 0.00e+00 1.61e-06  -9.0 9.36e-04  -6.3 1.00e+00 5.00e-01f  2
  97  8.0517323e-11 0.00e+00 4.82e-07  -9.0 3.38e-04  -5.9 1.00e+00 1.00e+00f  1
  98  8.0129891e-11 0.00e+00 4.06e-06  -9.0 1.02e-03  -6.4 1.00e+00 1.00e+00f  1
  99  7.9518986e-11 0.00e+00 3.17e-07  -9.0 2.70e-04  -5.9 1.00e+00 1.00e+00f  1
iter    objective    inf_pr   inf_du lg(mu)  ||d||  lg(rg) alpha_du alpha_pr  ls
 100  7.9396933e-11 0.00e+00 5.75e-06  -9.0 1.21e-03  -6.4 1.00e+00 1.00e+00f  1
 101  7.8394256e-11 0.00e+00 3.45e-07  -9.0 2.74e-04  -6.0 1.00e+00 1.00e+00f  1
 102  7.7946757e-11 0.00e+00 2.19e-06  -9.0 1.48e-03  -6.5 1.00e+00 5.00e-01f  2
 103  7.7506556e-11 0.00e+00 6.84e-07  -9.0 3.96e-04  -6.0 1.00e+00 1.00e+00f  1
 104  7.7089232e-11 0.00e+00 1.90e-06  -9.0 1.27e-03  -6.5 1.00e+00 5.00e-01f  2
 105  7.6670920e-11 0.00e+00 8.29e-07  -9.0 4.45e-04  -6.1 1.00e+00 1.00e+00f  1
 106  7.6266257e-11 0.00e+00 1.97e-06  -9.0 1.27e-03  -6.6 1.00e+00 5.00e-01f  2
 107  7.5815111e-11 0.00e+00 1.01e-06  -9.0 4.95e-04  -6.1 1.00e+00 1.00e+00f  1
 108  7.5731307e-11 0.00e+00 1.58e-06  -9.0 2.03e-03  -6.6 1.00e+00 2.50e-01f  3
 109  7.5280726e-11 0.00e+00 3.98e-08  -9.0 1.00e-04  -5.3 1.00e+00 1.00e+00f  1
iter    objective    inf_pr   inf_du lg(mu)  ||d||  lg(rg) alpha_du alpha_pr  ls
 110  7.5041578e-11 0.00e+00 3.94e-07  -9.0 3.13e-04  -5.8 1.00e+00 1.00e+00f  1
 111  7.4564228e-11 0.00e+00 2.62e-06  -9.0 8.09e-04  -6.2 1.00e+00 1.00e+00f  1
 112  7.4381489e-11 0.00e+00 3.14e-06  -9.0 1.36e-03  -6.7 1.00e+00 5.00e-01f  2
 113  7.4014723e-11 0.00e+00 5.36e-08  -9.0 1.25e-04  -5.4 1.00e+00 1.00e+00f  1
 114  7.3715849e-11 0.00e+00 6.00e-07  -9.0 3.92e-04  -5.9 1.00e+00 1.00e+00f  1
 115  7.3236753e-11 0.00e+00 3.37e-06  -9.0 9.13e-04  -6.3 1.00e+00 1.00e+00f  1
 116  7.2807814e-11 0.00e+00 3.07e-07  -9.0 2.76e-04  -5.9 1.00e+00 1.00e+00f  1
 117  7.2519661e-11 0.00e+00 5.21e-06  -9.0 1.14e-03  -6.4 1.00e+00 1.00e+00f  1
 118  7.1753167e-11 0.00e+00 2.60e-07  -9.0 2.46e-04  -6.0 1.00e+00 1.00e+00f  1
 119  7.1321450e-11 0.00e+00 1.84e-06  -9.0 1.32e-03  -6.4 1.00e+00 5.00e-01f  2
iter    objective    inf_pr   inf_du lg(mu)  ||d||  lg(rg) alpha_du alpha_pr  ls
 120  7.1268731e-11 0.00e+00 2.18e-06  -9.0 6.17e-02  -6.9 1.00e+00 7.81e-03f  8
 121  7.1004980e-11 0.00e+00 1.79e-06  -9.0 1.43e-03  -6.5 1.00e+00 2.50e-01f  3
 122  7.0606569e-11 0.00e+00 7.70e-07  -9.0 4.43e-04  -6.1 1.00e+00 1.00e+00f  1
 123  7.0210973e-11 0.00e+00 1.93e-06  -9.0 1.24e-03  -6.5 1.00e+00 5.00e-01f  2
 124  6.9788098e-11 0.00e+00 9.00e-07  -9.0 4.73e-04  -6.1 1.00e+00 1.00e+00f  1
 125  6.9524203e-11 0.00e+00 2.30e-06  -9.0 1.42e-03  -6.6 1.00e+00 5.00e-01f  2
 126  6.9159370e-11 0.00e+00 3.36e-08  -9.0 9.25e-05  -5.3 1.00e+00 1.00e+00f  1
 127  6.8932222e-11 0.00e+00 3.55e-07  -9.0 2.99e-04  -5.7 1.00e+00 1.00e+00f  1
 128  6.8460310e-11 0.00e+00 2.50e-06  -9.0 7.90e-04  -6.2 1.00e+00 1.00e+00f  1
 129  6.8164168e-11 0.00e+00 2.66e-06  -9.0 1.01e-03  -6.7 1.00e+00 5.00e-01f  2
iter    objective    inf_pr   inf_du lg(mu)  ||d||  lg(rg) alpha_du alpha_pr  ls
 130  6.7724119e-11 0.00e+00 1.60e-06  -9.0 8.20e-04  -6.3 1.00e+00 5.00e-01f  2
 131  6.7420147e-11 0.00e+00 3.92e-07  -9.0 3.10e-04  -5.8 1.00e+00 1.00e+00f  1
 132  6.6988268e-11 0.00e+00 3.67e-06  -9.0 9.60e-04  -6.3 1.00e+00 1.00e+00f  1
 133  6.6490876e-11 0.00e+00 2.81e-07  -9.0 2.59e-04  -5.9 1.00e+00 1.00e+00f  1
 134  6.6215469e-11 0.00e+00 5.03e-06  -9.0 1.12e-03  -6.4 1.00e+00 1.00e+00f  1
 135  6.5449536e-11 0.00e+00 2.67e-07  -9.0 2.50e-04  -5.9 1.00e+00 1.00e+00f  1
 136  6.5026200e-11 0.00e+00 1.74e-06  -9.0 1.28e-03  -6.4 1.00e+00 5.00e-01f  2
 137  6.4967329e-11 0.00e+00 1.89e-06  -9.0 4.41e-02  -6.9 1.00e+00 7.81e-03f  8
 138  6.4676333e-11 0.00e+00 2.25e-06  -9.0 7.89e-04  -6.5 1.00e+00 1.00e+00f  1
 139  6.4215154e-11 0.00e+00 2.03e-08  -9.0 7.08e-05  -5.1 1.00e+00 1.00e+00f  1
iter    objective    inf_pr   inf_du lg(mu)  ||d||  lg(rg) alpha_du alpha_pr  ls
 140  6.4041666e-11 0.00e+00 2.07e-07  -9.0 2.28e-04  -5.6 1.00e+00 1.00e+00f  1
 141  6.3610351e-11 0.00e+00 1.65e-06  -9.0 6.43e-04  -6.1 1.00e+00 1.00e+00f  1
 142  6.3114821e-11 0.00e+00 3.64e-06  -9.0 9.04e-04  -6.6 1.00e+00 1.00e+00f  1
 143  6.2589310e-11 0.00e+00 1.06e-06  -9.0 4.33e-04  -6.1 1.00e+00 1.00e+00f  1
 144  6.2342124e-11 0.00e+00 2.85e-07  -9.0 2.69e-04  -5.7 1.00e+00 1.00e+00f  1
 145  6.1880093e-11 0.00e+00 2.45e-06  -9.0 7.82e-04  -6.2 1.00e+00 1.00e+00f  1
 146  6.1663390e-11 0.00e+00 2.34e-06  -9.0 1.69e-03  -6.7 1.00e+00 2.50e-01f  3
 147  6.1205556e-11 0.00e+00 1.10e-06  -9.0 5.75e-04  -6.2 1.00e+00 1.00e+00f  1
 148  6.0849699e-11 0.00e+00 4.23e-07  -9.0 3.24e-04  -5.8 1.00e+00 1.00e+00f  1
 149  6.0438759e-11 0.00e+00 3.46e-06  -9.0 9.34e-04  -6.3 1.00e+00 1.00e+00f  1
iter    objective    inf_pr   inf_du lg(mu)  ||d||  lg(rg) alpha_du alpha_pr  ls
 150  5.9932028e-11 0.00e+00 2.86e-07  -9.0 2.64e-04  -5.9 1.00e+00 1.00e+00f  1
 151  5.9646153e-11 0.00e+00 4.73e-06  -9.0 1.09e-03  -6.4 1.00e+00 1.00e+00f  1
 152  5.8910809e-11 0.00e+00 2.73e-07  -9.0 2.58e-04  -5.9 1.00e+00 1.00e+00f  1
 153  5.8494088e-11 0.00e+00 1.67e-06  -9.0 1.24e-03  -6.4 1.00e+00 5.00e-01f  2
 154  5.8148107e-11 0.00e+00 5.83e-07  -9.0 3.78e-04  -6.0 1.00e+00 1.00e+00f  1
 155  5.7883785e-11 0.00e+00 5.20e-06  -9.0 1.14e-03  -6.5 1.00e+00 1.00e+00f  1
 156  5.7082338e-11 0.00e+00 3.40e-07  -9.0 2.91e-04  -6.0 1.00e+00 1.00e+00f  1
 157  5.6704830e-11 0.00e+00 2.75e-06  -9.0 1.62e-03  -6.5 1.00e+00 5.00e-01f  2
 158  5.6307154e-11 0.00e+00 1.70e-06  -9.0 5.36e-04  -6.1 1.00e+00 1.00e+00f  1
 159  5.5829196e-11 0.00e+00 2.88e-07  -9.0 2.75e-04  -5.7 1.00e+00 1.00e+00f  1
iter    objective    inf_pr   inf_du lg(mu)  ||d||  lg(rg) alpha_du alpha_pr  ls
 160  5.5379784e-11 0.00e+00 1.94e-06  -9.0 6.97e-04  -6.1 1.00e+00 1.00e+00f  1
 161  5.5099097e-11 0.00e+00 1.61e-06  -9.0 8.02e-04  -6.6 1.00e+00 5.00e-01f  2
 162  5.4876500e-11 0.00e+00 3.82e-08  -9.0 9.75e-05  -5.3 1.00e+00 1.00e+00f  1
 163  5.4641215e-11 0.00e+00 3.90e-07  -9.0 3.11e-04  -5.8 1.00e+00 1.00e+00f  1
 164  5.4173051e-11 0.00e+00 2.59e-06  -9.0 8.02e-04  -6.2 1.00e+00 1.00e+00f  1
 165  5.3975261e-11 0.00e+00 2.48e-06  -9.0 1.90e-03  -6.7 1.00e+00 2.50e-01f  3
 166  5.3538068e-11 0.00e+00 1.68e-06  -9.0 6.24e-04  -6.3 1.00e+00 1.00e+00f  1
 167  5.3082160e-11 0.00e+00 5.65e-07  -9.0 3.74e-04  -5.9 1.00e+00 1.00e+00f  1
 168  5.2913547e-11 0.00e+00 3.97e-06  -9.0 1.02e-03  -6.3 1.00e+00 1.00e+00f  1
 169  5.2214460e-11 0.00e+00 1.03e-08  -9.0 5.02e-05  -5.0 1.00e+00 1.00e+00f  1
iter    objective    inf_pr   inf_du lg(mu)  ||d||  lg(rg) alpha_du alpha_pr  ls
 170  5.2086429e-11 0.00e+00 1.13e-07  -9.0 1.67e-04  -5.5 1.00e+00 1.00e+00f  1
 171  5.1734973e-11 0.00e+00 9.53e-07  -9.0 4.87e-04  -6.0 1.00e+00 1.00e+00f  1
 172  5.1251658e-11 0.00e+00 3.57e-06  -9.0 9.29e-04  -6.4 1.00e+00 1.00e+00f  1
 173  5.0793498e-11 0.00e+00 3.86e-07  -9.0 3.10e-04  -6.0 1.00e+00 1.00e+00f  1
 174  5.0791051e-11 0.00e+00 6.99e-06  -9.0 1.32e-03  -6.5 1.00e+00 1.00e+00f  1
 175  5.0016194e-11 0.00e+00 2.50e-06  -9.0 1.34e-03  -6.1 1.00e+00 5.00e-01f  2
 176  4.9577780e-11 0.00e+00 2.61e-07  -9.0 2.02e-04  -5.6 1.00e+00 1.00e+00f  1
 177  4.9122686e-11 0.00e+00 1.91e-06  -9.0 6.78e-04  -6.1 1.00e+00 1.00e+00f  1
 178  4.8681868e-11 0.00e+00 3.18e-06  -9.0 8.66e-04  -6.6 1.00e+00 1.00e+00f  1
 179  4.8164716e-11 0.00e+00 2.14e-06  -9.0 1.27e-03  -6.2 1.00e+00 5.00e-01f  2
iter    objective    inf_pr   inf_du lg(mu)  ||d||  lg(rg) alpha_du alpha_pr  ls
 180  4.7812365e-11 0.00e+00 2.28e-07  -9.0 2.57e-04  -5.7 1.00e+00 1.00e+00f  1
 181  4.7366538e-11 0.00e+00 2.76e-06  -9.0 8.22e-04  -6.2 1.00e+00 1.00e+00f  1
 182  4.7184066e-11 0.00e+00 2.58e-06  -9.0 3.50e-03  -6.7 1.00e+00 1.25e-01f  4
 183  4.6700569e-11 0.00e+00 1.09e-06  -9.0 5.39e-04  -6.3 1.00e+00 1.00e+00f  1
 184  4.6350920e-11 0.00e+00 4.65e-07  -9.0 3.41e-04  -5.8 1.00e+00 1.00e+00f  1
 185  4.5952066e-11 0.00e+00 3.55e-06  -9.0 9.40e-04  -6.3 1.00e+00 1.00e+00f  1
 186  4.5427840e-11 0.00e+00 2.94e-07  -9.0 2.70e-04  -5.9 1.00e+00 1.00e+00f  1
 187  4.5213421e-11 0.00e+00 5.06e-06  -9.0 1.12e-03  -6.4 1.00e+00 1.00e+00f  1
 188  4.4386371e-11 0.00e+00 3.63e-07  -9.0 2.75e-04  -5.9 1.00e+00 1.00e+00f  1
 189  4.3973836e-11 0.00e+00 2.14e-06  -9.0 1.43e-03  -6.4 1.00e+00 5.00e-01f  2
iter    objective    inf_pr   inf_du lg(mu)  ||d||  lg(rg) alpha_du alpha_pr  ls
 190  4.3532993e-11 0.00e+00 6.16e-07  -9.0 3.91e-04  -6.0 1.00e+00 1.00e+00f  1
 191  4.3160262e-11 0.00e+00 2.00e-06  -9.0 1.29e-03  -6.5 1.00e+00 5.00e-01f  2
 192  4.2730218e-11 0.00e+00 8.63e-07  -9.0 4.77e-04  -6.0 1.00e+00 1.00e+00f  1
 193  4.2482322e-11 0.00e+00 1.85e-07  -9.0 2.20e-04  -5.6 1.00e+00 1.00e+00f  1
 194  4.2053721e-11 0.00e+00 1.67e-06  -9.0 6.44e-04  -6.1 1.00e+00 1.00e+00f  1
 195  4.1556712e-11 0.00e+00 3.50e-06  -9.0 8.91e-04  -6.6 1.00e+00 1.00e+00f  1
 196  4.1051392e-11 0.00e+00 9.37e-07  -9.0 4.30e-04  -6.1 1.00e+00 1.00e+00f  1
 197  4.0859780e-11 0.00e+00 1.15e-06  -9.0 5.16e-03  -6.6 1.00e+00 6.25e-02f  5
 198  4.0418709e-11 0.00e+00 1.71e-06  -9.0 6.70e-04  -6.2 1.00e+00 1.00e+00f  1
 199  4.0112011e-11 0.00e+00 2.80e-07  -9.0 2.60e-04  -5.8 1.00e+00 1.00e+00f  1
iter    objective    inf_pr   inf_du lg(mu)  ||d||  lg(rg) alpha_du alpha_pr  ls
 200  3.9661211e-11 0.00e+00 3.01e-06  -9.0 8.66e-04  -6.3 1.00e+00 1.00e+00f  1
 201  3.9273315e-11 0.00e+00 2.45e-07  -9.0 2.44e-04  -5.8 1.00e+00 1.00e+00f  1
 202  3.8869916e-11 0.00e+00 3.84e-06  -9.0 9.75e-04  -6.3 1.00e+00 1.00e+00f  1
 203  3.8355895e-11 0.00e+00 2.45e-07  -9.0 2.43e-04  -5.9 1.00e+00 1.00e+00f  1
 204  3.8063716e-11 0.00e+00 4.77e-06  -9.0 1.09e-03  -6.4 1.00e+00 1.00e+00f  1
 205  3.7358014e-11 0.00e+00 2.44e-07  -9.0 2.42e-04  -5.9 1.00e+00 1.00e+00f  1
 206  3.7326576e-11 0.00e+00 6.00e-06  -9.0 1.22e-03  -6.4 1.00e+00 1.00e+00f  1
 207  3.6271490e-11 0.00e+00 5.85e-07  -9.0 2.84e-04  -6.0 1.00e+00 1.00e+00f  1
 208  3.6056227e-11 0.00e+00 3.30e-06  -9.0 1.81e-03  -6.5 1.00e+00 5.00e-01f  2
 209  3.5455160e-11 0.00e+00 1.69e-08  -9.0 6.44e-05  -5.1 1.00e+00 1.00e+00f  1
iter    objective    inf_pr   inf_du lg(mu)  ||d||  lg(rg) alpha_du alpha_pr  ls
 210  3.5292251e-11 0.00e+00 1.88e-07  -9.0 2.16e-04  -5.6 1.00e+00 1.00e+00f  1
 211  3.4881641e-11 0.00e+00 1.52e-06  -9.0 6.13e-04  -6.1 1.00e+00 1.00e+00f  1
 212  3.4402455e-11 0.00e+00 3.48e-06  -9.0 9.00e-04  -6.6 1.00e+00 1.00e+00f  1
 213  3.3899375e-11 0.00e+00 9.26e-07  -9.0 4.12e-04  -6.1 1.00e+00 1.00e+00f  1
 214  3.3632307e-11 0.00e+00 1.47e-06  -9.0 3.98e-03  -6.6 1.00e+00 1.25e-01f  4
 215  3.3298367e-11 0.00e+00 1.36e-06  -9.0 8.26e-04  -6.2 1.00e+00 5.00e-01f  2
 216  3.2966371e-11 0.00e+00 2.72e-07  -9.0 2.68e-04  -5.8 1.00e+00 1.00e+00f  1
 217  3.2530223e-11 0.00e+00 2.74e-06  -9.0 8.21e-04  -6.2 1.00e+00 1.00e+00f  1
 218  3.2167963e-11 0.00e+00 2.36e-07  -9.0 2.41e-04  -5.8 1.00e+00 1.00e+00f  1
 219  3.1759956e-11 0.00e+00 3.51e-06  -9.0 9.29e-04  -6.3 1.00e+00 1.00e+00f  1
iter    objective    inf_pr   inf_du lg(mu)  ||d||  lg(rg) alpha_du alpha_pr  ls
 220  3.1296727e-11 0.00e+00 2.38e-07  -9.0 2.41e-04  -5.9 1.00e+00 1.00e+00f  1
 221  3.0968730e-11 0.00e+00 4.33e-06  -9.0 1.03e-03  -6.3 1.00e+00 1.00e+00f  1
 222  3.0353256e-11 0.00e+00 2.39e-07  -9.0 2.41e-04  -5.9 1.00e+00 1.00e+00f  1
 223  3.0209702e-11 0.00e+00 5.39e-06  -9.0 1.15e-03  -6.4 1.00e+00 1.00e+00f  1
 224  2.9325382e-11 0.00e+00 2.63e-07  -9.0 2.52e-04  -6.0 1.00e+00 1.00e+00f  1
 225  2.8914378e-11 0.00e+00 1.94e-06  -9.0 1.34e-03  -6.4 1.00e+00 5.00e-01f  2
 226  2.8549690e-11 0.00e+00 5.67e-07  -9.0 3.73e-04  -6.0 1.00e+00 1.00e+00f  1
 227  2.8521542e-11 0.00e+00 5.70e-06  -9.0 1.18e-03  -6.5 1.00e+00 1.00e+00f  1
 228  2.8055634e-11 0.00e+00 1.98e-06  -9.0 1.43e-03  -6.1 1.00e+00 5.00e-01f  2
 229  2.7261274e-11 0.00e+00 6.29e-07  -9.0 3.03e-04  -5.6 1.00e+00 1.00e+00f  1
iter    objective    inf_pr   inf_du lg(mu)  ||d||  lg(rg) alpha_du alpha_pr  ls
 230  2.6957425e-11 0.00e+00 2.53e-06  -9.0 8.03e-04  -6.1 1.00e+00 1.00e+00f  1
 231  2.6462422e-11 0.00e+00 1.66e-07  -9.0 2.20e-04  -5.7 1.00e+00 1.00e+00f  1
 232  2.6034948e-11 0.00e+00 2.12e-06  -9.0 7.27e-04  -6.2 1.00e+00 1.00e+00f  1
 233  2.5684569e-11 0.00e+00 3.44e-06  -9.0 8.61e-04  -6.6 1.00e+00 1.00e+00f  1
 234  2.5315439e-11 0.00e+00 3.81e-08  -9.0 9.89e-05  -5.3 1.00e+00 1.00e+00f  1
 235  2.5086546e-11 0.00e+00 4.13e-07  -9.0 3.19e-04  -5.8 1.00e+00 1.00e+00f  1
 236  2.4653529e-11 0.00e+00 2.62e-06  -9.0 8.04e-04  -6.3 1.00e+00 1.00e+00f  1
 237  2.4327585e-11 0.00e+00 2.54e-07  -9.0 2.49e-04  -5.8 1.00e+00 1.00e+00f  1
 238  2.3953898e-11 0.00e+00 3.68e-06  -9.0 9.51e-04  -6.3 1.00e+00 1.00e+00f  1
 239  2.3474946e-11 0.00e+00 2.34e-07  -9.0 2.39e-04  -5.9 1.00e+00 1.00e+00f  1
iter    objective    inf_pr   inf_du lg(mu)  ||d||  lg(rg) alpha_du alpha_pr  ls
 240  2.3220219e-11 0.00e+00 4.62e-06  -9.0 1.07e-03  -6.4 1.00e+00 1.00e+00f  1
 241  2.2549313e-11 0.00e+00 2.27e-07  -9.0 2.36e-04  -5.9 1.00e+00 1.00e+00f  1
 242  2.2177875e-11 0.00e+00 1.57e-06  -9.0 1.19e-03  -6.4 1.00e+00 5.00e-01f  2
 243  2.2037206e-11 0.00e+00 1.72e-06  -9.0 3.01e-03  -6.9 1.00e+00 1.25e-01f  4
 244  2.1726078e-11 0.00e+00 1.45e-06  -9.0 8.26e-04  -6.5 1.00e+00 5.00e-01f  2
 245  2.1373101e-11 0.00e+00 7.23e-07  -9.0 4.22e-04  -6.0 1.00e+00 1.00e+00f  1
 246  2.1036034e-11 0.00e+00 1.60e-06  -9.0 1.12e-03  -6.5 1.00e+00 5.00e-01f  2
 247  2.0674250e-11 0.00e+00 7.69e-07  -9.0 4.34e-04  -6.1 1.00e+00 1.00e+00f  1
 248  2.0339235e-11 0.00e+00 1.75e-06  -9.0 1.17e-03  -6.6 1.00e+00 5.00e-01f  2
 249  1.9949499e-11 0.00e+00 8.81e-07  -9.0 4.65e-04  -6.1 1.00e+00 1.00e+00f  1
iter    objective    inf_pr   inf_du lg(mu)  ||d||  lg(rg) alpha_du alpha_pr  ls
 250  1.9780328e-11 0.00e+00 2.14e-06  -9.0 1.33e-03  -6.6 1.00e+00 5.00e-01f  2
 251  1.9388102e-11 0.00e+00 3.30e-08  -9.0 8.95e-05  -5.3 1.00e+00 1.00e+00f  1
 252  1.9186600e-11 0.00e+00 3.50e-07  -9.0 2.93e-04  -5.8 1.00e+00 1.00e+00f  1
 253  1.8785107e-11 0.00e+00 2.31e-06  -9.0 7.54e-04  -6.3 1.00e+00 1.00e+00f  1
 254  1.8609058e-11 0.00e+00 2.09e-06  -9.0 1.66e-03  -6.7 1.00e+00 2.50e-01f  3
 255  1.8203464e-11 0.00e+00 1.07e-06  -9.0 5.66e-04  -6.3 1.00e+00 1.00e+00f  1
 256  1.7898790e-11 0.00e+00 3.88e-07  -9.0 3.17e-04  -5.9 1.00e+00 1.00e+00f  1
 257  1.7575509e-11 0.00e+00 3.38e-06  -9.0 9.12e-04  -6.4 1.00e+00 1.00e+00f  1
 258  1.7105135e-11 0.00e+00 2.45e-07  -9.0 2.51e-04  -5.9 1.00e+00 1.00e+00f  1
 259  1.6970314e-11 0.00e+00 4.74e-06  -9.0 1.07e-03  -6.4 1.00e+00 1.00e+00f  1
iter    objective    inf_pr   inf_du lg(mu)  ||d||  lg(rg) alpha_du alpha_pr  ls
 260  1.6224465e-11 0.00e+00 3.95e-07  -9.0 2.62e-04  -6.0 1.00e+00 1.00e+00f  1
 261  1.5888600e-11 0.00e+00 2.09e-06  -9.0 1.39e-03  -6.5 1.00e+00 5.00e-01f  2
 262  1.5505299e-11 0.00e+00 5.12e-07  -9.0 3.67e-04  -6.0 1.00e+00 1.00e+00f  1
 263  1.5233461e-11 0.00e+00 1.97e-06  -9.0 1.27e-03  -6.5 1.00e+00 5.00e-01f  2
 264  1.5140233e-11 0.00e+00 1.39e-06  -9.0 1.94e-03  -6.1 1.00e+00 2.50e-01f  3
 265  1.4725253e-11 0.00e+00 1.60e-07  -9.0 2.22e-04  -5.7 1.00e+00 1.00e+00f  1
 266  1.4378065e-11 0.00e+00 1.47e-06  -9.0 6.05e-04  -6.1 1.00e+00 1.00e+00f  1
 267  1.4046801e-11 0.00e+00 3.06e-06  -9.0 8.50e-04  -6.6 1.00e+00 1.00e+00f  1
 268  1.3768374e-11 0.00e+00 2.53e-08  -9.0 7.89e-05  -5.3 1.00e+00 1.00e+00f  1
 269  1.3602724e-11 0.00e+00 2.76e-07  -9.0 2.60e-04  -5.8 1.00e+00 1.00e+00f  1
iter    objective    inf_pr   inf_du lg(mu)  ||d||  lg(rg) alpha_du alpha_pr  ls
 270  1.3249225e-11 0.00e+00 1.94e-06  -9.0 6.90e-04  -6.2 1.00e+00 1.00e+00f  1
 271  1.3227801e-11 0.00e+00 5.11e-06  -9.0 8.82e-04  -6.7 1.00e+00 1.00e+00f  1
 272  1.2637218e-11 0.00e+00 4.68e-08  -9.0 1.11e-04  -5.4 1.00e+00 1.00e+00f  1
 273  1.2437355e-11 0.00e+00 4.17e-07  -9.0 3.21e-04  -5.9 1.00e+00 1.00e+00f  1
 274  1.2086401e-11 0.00e+00 2.49e-06  -9.0 7.82e-04  -6.3 1.00e+00 1.00e+00f  1
 275  1.1808076e-11 0.00e+00 2.34e-07  -9.0 2.39e-04  -5.9 1.00e+00 1.00e+00f  1
 276  1.1531941e-11 0.00e+00 3.50e-06  -9.0 9.27e-04  -6.4 1.00e+00 1.00e+00f  1
 277  1.1111490e-11 0.00e+00 2.03e-07  -9.0 2.23e-04  -6.0 1.00e+00 1.00e+00f  1
 278  1.0961918e-11 0.00e+00 4.36e-06  -9.0 1.03e-03  -6.4 1.00e+00 1.00e+00f  1
 279  1.0368387e-11 0.00e+00 1.88e-07  -9.0 2.20e-04  -6.0 1.00e+00 1.00e+00f  1
iter    objective    inf_pr   inf_du lg(mu)  ||d||  lg(rg) alpha_du alpha_pr  ls
 280  1.0077911e-11 0.00e+00 1.46e-06  -9.0 1.15e-03  -6.5 1.00e+00 5.00e-01f  2
 281  9.9964229e-12 0.00e+00 1.60e-06  -9.0 6.56e-03  -7.0 1.00e+00 6.25e-02f  5
 282  9.8725949e-12 0.00e+00 1.41e-06  -9.0 1.96e-03  -6.5 1.00e+00 2.50e-01f  3
 283  9.6767289e-12 0.00e+00 1.67e-08  -9.0 6.37e-05  -5.2 1.00e+00 1.00e+00f  1
 284  9.5602633e-12 0.00e+00 1.65e-07  -9.0 2.01e-04  -5.7 1.00e+00 1.00e+00f  1
 285  9.2761766e-12 0.00e+00 1.28e-06  -9.0 5.61e-04  -6.2 1.00e+00 1.00e+00f  1
 286  8.9534393e-12 0.00e+00 2.60e-06  -9.0 7.95e-04  -6.6 1.00e+00 1.00e+00f  1
 287  8.6142224e-12 0.00e+00 8.53e-07  -9.0 3.96e-04  -6.2 1.00e+00 1.00e+00f  1
 288  8.4912370e-12 0.00e+00 1.39e-06  -9.0 7.62e-03  -6.7 1.00e+00 6.25e-02f  5
 289  8.3009897e-12 0.00e+00 3.20e-08  -9.0 8.76e-05  -5.4 1.00e+00 1.00e+00f  1
iter    objective    inf_pr   inf_du lg(mu)  ||d||  lg(rg) alpha_du alpha_pr  ls
 290  8.1530354e-12 0.00e+00 3.00e-07  -9.0 2.70e-04  -5.8 1.00e+00 1.00e+00f  1
 291  7.8634437e-12 0.00e+00 1.93e-06  -9.0 6.88e-04  -6.3 1.00e+00 1.00e+00f  1
 292  7.7080240e-12 0.00e+00 1.98e-06  -9.0 1.07e-03  -6.8 1.00e+00 5.00e-01f  2
 293  7.4711860e-12 0.00e+00 1.60e-06  -9.0 2.10e-03  -6.4 1.00e+00 2.50e-01f  3
 294  7.2059726e-12 0.00e+00 3.04e-07  -9.0 2.84e-04  -5.9 1.00e+00 1.00e+00f  1
 295  6.9985127e-12 0.00e+00 2.69e-06  -9.0 8.18e-04  -6.4 1.00e+00 1.00e+00f  1
 296  6.6555346e-12 0.00e+00 2.01e-07  -9.0 2.28e-04  -6.0 1.00e+00 1.00e+00f  1
 297  6.5376734e-12 0.00e+00 3.61e-06  -9.0 9.39e-04  -6.5 1.00e+00 1.00e+00f  1
 298  6.0731040e-12 0.00e+00 2.00e-07  -9.0 2.23e-04  -6.0 1.00e+00 1.00e+00f  1
 299  5.8448607e-12 0.00e+00 1.27e-06  -9.0 1.07e-03  -6.5 1.00e+00 5.00e-01f  2
iter    objective    inf_pr   inf_du lg(mu)  ||d||  lg(rg) alpha_du alpha_pr  ls
 300  5.6549767e-12 0.00e+00 3.86e-07  -9.0 3.10e-04  -6.1 1.00e+00 1.00e+00f  1
 301  5.5278235e-12 0.00e+00 3.58e-06  -9.0 9.32e-04  -6.6 1.00e+00 1.00e+00f  1
 302  5.1083672e-12 0.00e+00 2.40e-07  -9.0 2.38e-04  -6.1 1.00e+00 1.00e+00f  1
 303  4.9074041e-12 0.00e+00 1.73e-06  -9.0 1.24e-03  -6.6 1.00e+00 5.00e-01f  2
 304  4.6700208e-12 0.00e+00 4.23e-07  -9.0 3.40e-04  -6.2 1.00e+00 1.00e+00f  1
 305  4.5373006e-12 0.00e+00 1.78e-06  -9.0 1.18e-03  -6.7 1.00e+00 5.00e-01f  2
 306  4.3457190e-12 0.00e+00 1.55e-08  -9.0 6.24e-05  -5.3 1.00e+00 1.00e+00f  1
 307  4.2554250e-12 0.00e+00 1.75e-07  -9.0 2.06e-04  -5.8 1.00e+00 1.00e+00f  1
 308  4.0544795e-12 0.00e+00 1.25e-06  -9.0 5.53e-04  -6.3 1.00e+00 1.00e+00f  1
 309  3.8587514e-12 0.00e+00 2.05e-06  -9.0 7.06e-04  -6.8 1.00e+00 1.00e+00f  1
iter    objective    inf_pr   inf_du lg(mu)  ||d||  lg(rg) alpha_du alpha_pr  ls
 310  3.6854199e-12 0.00e+00 2.00e-06  -9.0 5.10e-04  -6.4 1.00e+00 1.00e+00f  1
 311  3.4106552e-12 0.00e+00 3.73e-07  -9.0 2.67e-04  -5.9 1.00e+00 1.00e+00f  1
 312  3.2912709e-12 0.00e+00 2.09e-06  -9.0 6.94e-04  -6.4 1.00e+00 1.00e+00f  1
 313  3.0478689e-12 0.00e+00 1.18e-07  -9.0 1.90e-04  -6.0 1.00e+00 1.00e+00f  1
 314  2.8999655e-12 0.00e+00 2.05e-06  -9.0 6.99e-04  -6.5 1.00e+00 1.00e+00f  1
 315  2.7165005e-12 0.00e+00 1.28e-07  -9.0 1.83e-04  -6.0 1.00e+00 1.00e+00f  1
 316  2.5800985e-12 0.00e+00 2.18e-06  -9.0 7.26e-04  -6.5 1.00e+00 1.00e+00f  1
 317  2.3952462e-12 0.00e+00 1.28e-07  -9.0 1.81e-04  -6.1 1.00e+00 1.00e+00f  1
 318  2.2864776e-12 0.00e+00 2.40e-06  -9.0 7.61e-04  -6.6 1.00e+00 1.00e+00f  1
 319  2.0810744e-12 0.00e+00 1.23e-07  -9.0 1.78e-04  -6.1 1.00e+00 1.00e+00f  1
iter    objective    inf_pr   inf_du lg(mu)  ||d||  lg(rg) alpha_du alpha_pr  ls
 320  2.0128447e-12 0.00e+00 2.65e-06  -9.0 7.98e-04  -6.6 1.00e+00 1.00e+00f  1
 321  1.7755666e-12 0.00e+00 1.15e-07  -9.0 1.76e-04  -6.2 1.00e+00 1.00e+00f  1
 322  1.7687210e-12 0.00e+00 2.93e-06  -9.0 8.36e-04  -6.7 1.00e+00 1.00e+00f  1
 323  1.4794028e-12 0.00e+00 1.80e-07  -9.0 1.86e-04  -6.2 1.00e+00 1.00e+00f  1
 324  1.3750317e-12 0.00e+00 9.28e-07  -9.0 9.01e-04  -6.7 1.00e+00 5.00e-01f  2
 325  1.2847882e-12 0.00e+00 2.54e-07  -9.0 2.54e-04  -6.3 1.00e+00 1.00e+00f  1
 326  1.2465937e-12 0.00e+00 2.38e-06  -9.0 7.50e-04  -6.8 1.00e+00 1.00e+00f  1
 327  1.0477494e-12 0.00e+00 1.93e-07  -9.0 2.01e-04  -6.3 1.00e+00 1.00e+00f  1
 328  9.7187910e-13 0.00e+00 1.06e-06  -9.0 9.44e-04  -6.8 1.00e+00 5.00e-01f  2
 329  8.7518732e-13 0.00e+00 2.61e-07  -9.0 2.70e-04  -6.4 1.00e+00 1.00e+00f  1
iter    objective    inf_pr   inf_du lg(mu)  ||d||  lg(rg) alpha_du alpha_pr  ls
 330  8.2663773e-13 0.00e+00 9.93e-07  -9.0 8.59e-04  -6.9 1.00e+00 5.00e-01f  2
 331  7.3572318e-13 0.00e+00 7.33e-07  -9.0 3.84e-04  -6.4 1.00e+00 1.00e+00f  1
 332  6.7036333e-13 0.00e+00 8.89e-08  -9.0 1.48e-04  -6.0 1.00e+00 1.00e+00f  1
 333  6.0508950e-13 0.00e+00 6.00e-07  -9.0 3.86e-04  -6.5 1.00e+00 1.00e+00f  1
 334  5.3478437e-13 0.00e+00 1.08e-06  -9.0 5.08e-04  -7.0 1.00e+00 1.00e+00f  1
 335  4.7096163e-13 0.00e+00 2.75e-07  -9.0 2.56e-04  -6.5 1.00e+00 1.00e+00f  1
 336  4.4344568e-13 0.00e+00 7.69e-08  -9.0 1.37e-04  -6.1 1.00e+00 1.00e+00f  1
 337  3.9179463e-13 0.00e+00 6.15e-07  -9.0 3.88e-04  -6.6 1.00e+00 1.00e+00f  1
 338  3.4268972e-13 0.00e+00 8.98e-07  -9.0 4.69e-04  -7.1 1.00e+00 1.00e+00f  1
 339  2.8999429e-13 0.00e+00 4.34e-07  -9.0 3.01e-04  -6.6 1.00e+00 1.00e+00f  1
iter    objective    inf_pr   inf_du lg(mu)  ||d||  lg(rg) alpha_du alpha_pr  ls
 340  2.5937541e-13 0.00e+00 5.62e-08  -9.0 1.28e-04  -6.2 1.00e+00 1.00e+00f  1
 341  2.2275671e-13 0.00e+00 5.81e-07  -9.0 3.74e-04  -6.7 1.00e+00 1.00e+00f  1
 342  1.9749318e-13 0.00e+00 5.07e-07  -9.0 4.68e-04  -7.2 1.00e+00 5.00e-01f  2
 343  1.6639802e-13 0.00e+00 2.96e-07  -9.0 2.61e-04  -6.7 1.00e+00 1.00e+00f  1
 344  1.5028453e-13 0.00e+00 5.97e-08  -9.0 1.23e-04  -6.3 1.00e+00 1.00e+00f  1
 345  1.2445432e-13 0.00e+00 4.98e-07  -9.0 3.48e-04  -6.8 1.00e+00 1.00e+00f  1
 346  1.1189347e-13 0.00e+00 9.25e-07  -9.0 3.94e-04  -7.3 1.00e+00 1.00e+00f  1
 347  8.7512938e-14 0.00e+00 8.30e-09  -9.0 4.57e-05  -5.9 1.00e+00 1.00e+00f  1

Number of Iterations....: 347

                                   (scaled)                 (unscaled)
Objective...............:   8.7512938385413582e-14    8.7512938385413582e-14
Dual infeasibility......:   8.2969015830953745e-09    8.2969015830953745e-09
Constraint violation....:   0.0000000000000000e+00    0.0000000000000000e+00
Complementarity.........:   0.0000000000000000e+00    0.0000000000000000e+00
Overall NLP error.......:   8.2969015830953745e-09    8.2969015830953745e-09


Number of objective function evaluations             = 719
Number of objective gradient evaluations             = 348
Number of equality constraint evaluations            = 0
Number of inequality constraint evaluations          = 0
Number of equality constraint Jacobian evaluations   = 0
Number of inequality constraint Jacobian evaluations = 0
Number of Lagrangian Hessian evaluations             = 347
Total CPU secs in IPOPT (w/o function evaluations)   =      0.110
Total CPU secs in NLP function evaluations           =      0.077

EXIT: Optimal Solution Found.

 ** SUBROUTINE CUTEST_csetup: Warning. The problem has no general constraints. 
 ** Other tools may be preferable ** 

************************ CUTEst statistics ************************


 Package used            :  IPOPT
 Problem                 :  DECONVU   
 # variables             =              63
 # constraints           =               0
 # objective functions   =        0.1068000E+04
 # objective gradients   =        0.3490000E+03
 # objective Hessians    =        0.3480000E+03
 # Hessian-vector prdct  =        0.0000000E+00
 # constraints functions =        0.0000000E+00
 # constraints gradients =        0.0000000E+00
 # constraints Hessians  =        0.0000000E+00
 Exit code               =               0
 Final f                 =   0.8751294E-13
 Set up time             =            0.01 seconds
 Solve time              =            0.45 seconds


******************************************************************

System Time =       0.1909999996 s.
